\ENCODING=ISO-8859-1
\Problem name: TP4

Maximize
 obj1: 7.48587678535184 x_j0 + 8.7754316994806 x_j1 + 7.56947892139176 x_j2
Subject To
 capacity_1: 756 x_j0 + 346 x_j1 + 69 x_j2 <= 1000
Bounds
 0 <= x_j0 <= 1
 0 <= x_j1 <= 1
 0 <= x_j2 <= 1
Binaries
 x_j0  x_j1  x_j2 
End
